;; sequence(s): A53298
;; terms: 1 8 34 107 281 654 1397 2801 5353 9859 17643 30869 53062 89951 150833 250780 414210 680665 1114160 1818310
;; small program: loop((loop(loop(loop(loop((loop(loop((((loop2(x + y, x, x, 2 + 2, 1 + 2) - 2) - x) - x) - x, 1, y) + x, x, 1) - x) - x, 1, y) + x, x, 1) - x, 1, y) + x, x, 1) - x) - 1, 1, 2 + x)
;; fast program: (loop(loop(((((loop(loop((loop(loop((((loop2(x + y, x, x, 2 + 2, 1 + 2) - 2) - x) - x) - x, 1, 2 + y) + x, x, 1) - x) - x, 1, y) + x, x, 1) + x) * 2) - 1) - x) - x, 1, y) + x, x, 2) + x) div 2
(set-logic UFNIA)
(define-fun divf ((a Int) (b Int)) Int (ite (< 0 b) (div a b) (div (- a) (- b))))
(declare-fun f7 (Int Int) Int)
(declare-fun g7 (Int) Int)
(declare-fun h7 (Int) Int)
(declare-fun i7 () Int)
(declare-fun j7 () Int)
(declare-fun u7 (Int Int Int) Int)
(declare-fun v7 (Int Int Int) Int)
(declare-fun w7 (Int) Int)
(declare-fun f6 (Int) Int)
(declare-fun g6 () Int)
(declare-fun h6 (Int Int) Int)
(declare-fun u6 (Int Int) Int)
(declare-fun v6 (Int Int) Int)
(declare-fun f5 (Int Int) Int)
(declare-fun g5 (Int) Int)
(declare-fun h5 () Int)
(declare-fun u5 (Int Int) Int)
(declare-fun v5 (Int) Int)
(declare-fun f4 (Int) Int)
(declare-fun g4 () Int)
(declare-fun h4 (Int Int) Int)
(declare-fun u4 (Int Int) Int)
(declare-fun v4 (Int Int) Int)
(declare-fun f3 (Int Int) Int)
(declare-fun g3 (Int) Int)
(declare-fun h3 () Int)
(declare-fun u3 (Int Int) Int)
(declare-fun v3 (Int) Int)
(declare-fun f2 (Int) Int)
(declare-fun g2 () Int)
(declare-fun h2 (Int Int) Int)
(declare-fun u2 (Int Int) Int)
(declare-fun v2 (Int Int) Int)
(declare-fun f1 (Int Int) Int)
(declare-fun g1 (Int) Int)
(declare-fun h1 () Int)
(declare-fun u1 (Int Int) Int)
(declare-fun v1 (Int) Int)
(declare-fun f0 (Int) Int)
(declare-fun g0 () Int)
(declare-fun h0 (Int) Int)
(declare-fun u0 (Int Int) Int)
(declare-fun v0 (Int) Int)
(declare-fun small (Int) Int)
(declare-fun f14 (Int Int) Int)
(declare-fun g14 (Int) Int)
(declare-fun h14 (Int) Int)
(declare-fun i14 () Int)
(declare-fun j14 () Int)
(declare-fun u14 (Int Int Int) Int)
(declare-fun v14 (Int Int Int) Int)
(declare-fun w14 (Int) Int)
(declare-fun f13 (Int) Int)
(declare-fun g13 () Int)
(declare-fun h13 (Int Int) Int)
(declare-fun u13 (Int Int) Int)
(declare-fun v13 (Int Int) Int)
(declare-fun f12 (Int Int) Int)
(declare-fun g12 (Int) Int)
(declare-fun h12 () Int)
(declare-fun u12 (Int Int) Int)
(declare-fun v12 (Int) Int)
(declare-fun f11 (Int) Int)
(declare-fun g11 () Int)
(declare-fun h11 (Int Int) Int)
(declare-fun u11 (Int Int) Int)
(declare-fun v11 (Int Int) Int)
(declare-fun f10 (Int Int) Int)
(declare-fun g10 (Int) Int)
(declare-fun h10 () Int)
(declare-fun u10 (Int Int) Int)
(declare-fun v10 (Int) Int)
(declare-fun f9 (Int) Int)
(declare-fun g9 () Int)
(declare-fun h9 (Int Int) Int)
(declare-fun u9 (Int Int) Int)
(declare-fun v9 (Int Int) Int)
(declare-fun f8 (Int Int) Int)
(declare-fun g8 (Int) Int)
(declare-fun h8 () Int)
(declare-fun u8 (Int Int) Int)
(declare-fun v8 (Int) Int)
(declare-fun fast (Int) Int)
(assert (forall ((x Int) (y Int)) (= (f7 x y) (+ x y))))
(assert (forall ((x Int)) (= (g7 x) x)))
(assert (forall ((x Int)) (= (h7 x) x)))
(assert (= i7 (+ 2 2)))
(assert (= j7 (+ 1 2)))
(assert (forall ((x Int) (y Int) (z Int)) (= (u7 x y z) (ite (<= x 0) y (f7 (u7 (- x 1) y z) (v7 (- x 1) y z))))))
(assert (forall ((x Int) (y Int) (z Int)) (= (v7 x y z) (ite (<= x 0) z (g7 (u7 (- x 1) y z))))))
(assert (forall ((x Int)) (= (w7 x) (u7 (h7 x) i7 j7))))
(assert (forall ((x Int)) (= (f6 x) (- (- (- (- (w7 x) 2) x) x) x))))
(assert (= g6 1))
(assert (forall ((x Int) (y Int)) (= (h6 x y) y)))
(assert (forall ((x Int) (y Int)) (= (u6 x y) (ite (<= x 0) y (f6 (u6 (- x 1) y))))))
(assert (forall ((x Int) (y Int)) (= (v6 x y) (u6 g6 (h6 x y)))))
(assert (forall ((x Int) (y Int)) (= (f5 x y) (+ (v6 x y) x))))
(assert (forall ((x Int)) (= (g5 x) x)))
(assert (= h5 1))
(assert (forall ((x Int) (y Int)) (= (u5 x y) (ite (<= x 0) y (f5 (u5 (- x 1) y) x)))))
(assert (forall ((x Int)) (= (v5 x) (u5 (g5 x) h5))))
(assert (forall ((x Int)) (= (f4 x) (- (- (v5 x) x) x))))
(assert (= g4 1))
(assert (forall ((x Int) (y Int)) (= (h4 x y) y)))
(assert (forall ((x Int) (y Int)) (= (u4 x y) (ite (<= x 0) y (f4 (u4 (- x 1) y))))))
(assert (forall ((x Int) (y Int)) (= (v4 x y) (u4 g4 (h4 x y)))))
(assert (forall ((x Int) (y Int)) (= (f3 x y) (+ (v4 x y) x))))
(assert (forall ((x Int)) (= (g3 x) x)))
(assert (= h3 1))
(assert (forall ((x Int) (y Int)) (= (u3 x y) (ite (<= x 0) y (f3 (u3 (- x 1) y) x)))))
(assert (forall ((x Int)) (= (v3 x) (u3 (g3 x) h3))))
(assert (forall ((x Int)) (= (f2 x) (- (v3 x) x))))
(assert (= g2 1))
(assert (forall ((x Int) (y Int)) (= (h2 x y) y)))
(assert (forall ((x Int) (y Int)) (= (u2 x y) (ite (<= x 0) y (f2 (u2 (- x 1) y))))))
(assert (forall ((x Int) (y Int)) (= (v2 x y) (u2 g2 (h2 x y)))))
(assert (forall ((x Int) (y Int)) (= (f1 x y) (+ (v2 x y) x))))
(assert (forall ((x Int)) (= (g1 x) x)))
(assert (= h1 1))
(assert (forall ((x Int) (y Int)) (= (u1 x y) (ite (<= x 0) y (f1 (u1 (- x 1) y) x)))))
(assert (forall ((x Int)) (= (v1 x) (u1 (g1 x) h1))))
(assert (forall ((x Int)) (= (f0 x) (- (- (v1 x) x) 1))))
(assert (= g0 1))
(assert (forall ((x Int)) (= (h0 x) (+ 2 x))))
(assert (forall ((x Int) (y Int)) (= (u0 x y) (ite (<= x 0) y (f0 (u0 (- x 1) y))))))
(assert (forall ((x Int)) (= (v0 x) (u0 g0 (h0 x)))))
(assert (forall ((x Int)) (= (small x) (v0 x))))
(assert (forall ((x Int) (y Int)) (= (f14 x y) (+ x y))))
(assert (forall ((x Int)) (= (g14 x) x)))
(assert (forall ((x Int)) (= (h14 x) x)))
(assert (= i14 (+ 2 2)))
(assert (= j14 (+ 1 2)))
(assert (forall ((x Int) (y Int) (z Int)) (= (u14 x y z) (ite (<= x 0) y (f14 (u14 (- x 1) y z) (v14 (- x 1) y z))))))
(assert (forall ((x Int) (y Int) (z Int)) (= (v14 x y z) (ite (<= x 0) z (g14 (u14 (- x 1) y z))))))
(assert (forall ((x Int)) (= (w14 x) (u14 (h14 x) i14 j14))))
(assert (forall ((x Int)) (= (f13 x) (- (- (- (- (w14 x) 2) x) x) x))))
(assert (= g13 1))
(assert (forall ((x Int) (y Int)) (= (h13 x y) (+ 2 y))))
(assert (forall ((x Int) (y Int)) (= (u13 x y) (ite (<= x 0) y (f13 (u13 (- x 1) y))))))
(assert (forall ((x Int) (y Int)) (= (v13 x y) (u13 g13 (h13 x y)))))
(assert (forall ((x Int) (y Int)) (= (f12 x y) (+ (v13 x y) x))))
(assert (forall ((x Int)) (= (g12 x) x)))
(assert (= h12 1))
(assert (forall ((x Int) (y Int)) (= (u12 x y) (ite (<= x 0) y (f12 (u12 (- x 1) y) x)))))
(assert (forall ((x Int)) (= (v12 x) (u12 (g12 x) h12))))
(assert (forall ((x Int)) (= (f11 x) (- (- (v12 x) x) x))))
(assert (= g11 1))
(assert (forall ((x Int) (y Int)) (= (h11 x y) y)))
(assert (forall ((x Int) (y Int)) (= (u11 x y) (ite (<= x 0) y (f11 (u11 (- x 1) y))))))
(assert (forall ((x Int) (y Int)) (= (v11 x y) (u11 g11 (h11 x y)))))
(assert (forall ((x Int) (y Int)) (= (f10 x y) (+ (v11 x y) x))))
(assert (forall ((x Int)) (= (g10 x) x)))
(assert (= h10 1))
(assert (forall ((x Int) (y Int)) (= (u10 x y) (ite (<= x 0) y (f10 (u10 (- x 1) y) x)))))
(assert (forall ((x Int)) (= (v10 x) (u10 (g10 x) h10))))
(assert (forall ((x Int)) (= (f9 x) (- (- (- (* (+ (v10 x) x) 2) 1) x) x))))
(assert (= g9 1))
(assert (forall ((x Int) (y Int)) (= (h9 x y) y)))
(assert (forall ((x Int) (y Int)) (= (u9 x y) (ite (<= x 0) y (f9 (u9 (- x 1) y))))))
(assert (forall ((x Int) (y Int)) (= (v9 x y) (u9 g9 (h9 x y)))))
(assert (forall ((x Int) (y Int)) (= (f8 x y) (+ (v9 x y) x))))
(assert (forall ((x Int)) (= (g8 x) x)))
(assert (= h8 2))
(assert (forall ((x Int) (y Int)) (= (u8 x y) (ite (<= x 0) y (f8 (u8 (- x 1) y) x)))))
(assert (forall ((x Int)) (= (v8 x) (u8 (g8 x) h8))))
(assert (forall ((x Int)) (= (fast x) (divf (+ (v8 x) x) 2))))
(assert (exists ((c Int)) (and (>= c 0) (not (= (small c) (fast c))))))
(check-sat)
